Route #1: 76 77 3 79 78 34 35 65 71 66 20 30 1 69
Route #2: 84 17 45 46 47 36 49 64 11 19 48 82 8 83
Route #3: 21 73 72 56 23 39 67 25 55 4 54 26
Route #4: 87 42 43 14 38 86 44 16 61 5 60 18
Route #5: 52 7 88 62 10 63 90 32 70 31 27
Route #6: 50 33 81 9 51 24 29 80 68 12 28
Route #7: 53 58 40 74 75 22 41 15 57 2 13 94
Route #8: 89 6 96 99 59 93 85 91 100 98 37 92 97 95
Cost 867